NAME          BLANK   
ROWS
 N  OBJROW
 L  R0000000
COLUMNS
    C0000000  OBJROW     -500.         R0000000  16.         
    C0000001  OBJROW     -959.         R0000000  811.        
    C0000002  OBJROW     -634.         R0000000  806.        
    C0000003  OBJROW     -872.         R0000000  341.        
    C0000004  OBJROW     -298.         R0000000  532.        
    C0000005  OBJROW     -688.         R0000000  638.        
    C0000006  OBJROW     -978.         R0000000  828.        
    C0000007  OBJROW     -576.         R0000000  783.        
    C0000008  OBJROW     -346.         R0000000  916.        
    C0000009  OBJROW     -521.         R0000000  23.         
    C0000010  OBJROW     -344.         R0000000  244.        
    C0000011  OBJROW     -659.         R0000000  871.        
    C0000012  OBJROW     -982.         R0000000  420.        
    C0000013  OBJROW     -229.         R0000000  759.        
    C0000014  OBJROW     -862.         R0000000  506.        
    C0000015  OBJROW     -843.         R0000000  384.        
    C0000016  OBJROW     -512.         R0000000  482.        
    C0000017  OBJROW     -881.         R0000000  288.        
    C0000018  OBJROW     -609.         R0000000  714.        
    C0000019  OBJROW     -802.         R0000000  297.        
    C0000020  OBJROW     -449.         R0000000  912.        
    C0000021  OBJROW     -538.         R0000000  426.        
    C0000022  OBJROW     -913.         R0000000  401.        
    C0000023  OBJROW     -192.         R0000000  266.        
    C0000024  OBJROW     -747.         R0000000  87.         
    C0000025  OBJROW     -632.         R0000000  524.        
    C0000026  OBJROW     -65.          R0000000  893.        
    C0000027  OBJROW     -185.         R0000000  725.        
    C0000028  OBJROW     -290.         R0000000  358.        
    C0000029  OBJROW     -223.         R0000000  195.        
    C0000030  OBJROW     -388.         R0000000  488.        
    C0000031  OBJROW     -47.          R0000000  729.        
    C0000032  OBJROW     -226.         R0000000  42.         
    C0000033  OBJROW     -200.         R0000000  713.        
    C0000034  OBJROW     -131.         R0000000  42.         
    C0000035  OBJROW     -918.         R0000000  575.        
    C0000036  OBJROW     -973.         R0000000  355.        
    C0000037  OBJROW     -830.         R0000000  703.        
    C0000038  OBJROW     -413.         R0000000  124.        
    C0000039  OBJROW     -310.         R0000000  679.        
RHS
    RHS       R0000000  9948.       
BOUNDS
 BV BOUND     C0000000  1.          
 BV BOUND     C0000001  1.          
 BV BOUND     C0000002  1.          
 BV BOUND     C0000003  1.          
 BV BOUND     C0000004  1.          
 BV BOUND     C0000005  1.          
 BV BOUND     C0000006  1.          
 BV BOUND     C0000007  1.          
 BV BOUND     C0000008  1.          
 BV BOUND     C0000009  1.          
 BV BOUND     C0000010  1.          
 BV BOUND     C0000011  1.          
 BV BOUND     C0000012  1.          
 BV BOUND     C0000013  1.          
 BV BOUND     C0000014  1.          
 BV BOUND     C0000015  1.          
 BV BOUND     C0000016  1.          
 BV BOUND     C0000017  1.          
 BV BOUND     C0000018  1.          
 BV BOUND     C0000019  1.          
 BV BOUND     C0000020  1.          
 BV BOUND     C0000021  1.          
 BV BOUND     C0000022  1.          
 BV BOUND     C0000023  1.          
 BV BOUND     C0000024  1.          
 BV BOUND     C0000025  1.          
 BV BOUND     C0000026  1.          
 BV BOUND     C0000027  1.          
 BV BOUND     C0000028  1.          
 BV BOUND     C0000029  1.          
 BV BOUND     C0000030  1.          
 BV BOUND     C0000031  1.          
 BV BOUND     C0000032  1.          
 BV BOUND     C0000033  1.          
 BV BOUND     C0000034  1.          
 BV BOUND     C0000035  1.          
 BV BOUND     C0000036  1.          
 BV BOUND     C0000037  1.          
 BV BOUND     C0000038  1.          
 BV BOUND     C0000039  1.          
ENDATA
